10J3M/DAT/10J3MNTR-17.dat
10 3
29.763 39.3055
27.4848 15.1571
19.8294 2.6033
26.1271 38.4697
21.5087 22.3741
21.9646 21.1609
22.2867 36.2235
21.8351 38.8138
26.7729 49.9007
23.3405 48.1376
78.0365