10J3M/SOL/10J3MNTR-17.sol
solution status: optimal solution found
objective value:                     72.3996359642842
x#1#1                                               1 	(obj:0)
x#2#1                               0.478543774021964 	(obj:0)
x#2#2                              0.0388183445442636 	(obj:0)
x#2#3                               0.482637881433775 	(obj:0)
x#3#1                                               1 	(obj:0)
x#5#3                                 0.6823596258558 	(obj:0)
x#6#2                                               1 	(obj:0)
x#7#3                                               1 	(obj:0)
x#8#2                               0.941305309604728 	(obj:0)
x#8#3                              0.0586946903952721 	(obj:0)
x#9#2                                               1 	(obj:0)
x#10#1                              0.673657629911186 	(obj:0)
x#10#3                              0.326342370088814 	(obj:0)
z                                    72.3996359642842 	(obj:1)
